# filename = job.h-not0mod3.prime-large/tally.byoddfreq
#
# ave jacobi ops per valid v(1) with cache = 4.684
# ave jacobi ops per valid v(1) w/o cache  = 4.916
#
# fraction of 1st valid v(1) matching 1st v(1) of a verified prime = 1.000
#
# match_prime_v1   = 33424
# nomatch_prime_v1 = 0
#
# Jacobi ops ignoring cache = 156571
# Jacobi ops with cache     = 164325
# valid_v1_values           = 33424
#
# cache_load_count = 156571
# cache_hit_count  = 7754
#
# out_of_range      = 0
# invalid_str_value = 0
#
# non_zero_count = 19
# zero_count     = 147
# out_of_range   = 0
#
# count sum = 33424
#
# count value
17142 3
6056 11
4083 9
3078 15
1145 27
771 21
596 31
300 39
164 35
33 51
18 45
14 49
10 55
6 59
3 85
2 69
1 71
1 81
1 95
0 0
0 1
0 2
0 4
0 5
0 6
0 7
0 8
0 10
0 12
0 13
0 14
0 16
0 17
0 18
0 19
0 20
0 22
0 23
0 24
0 25
0 26
0 28
0 29
0 30
0 32
0 33
0 34
0 36
0 37
0 38
0 40
0 41
0 42
0 43
0 44
0 46
0 47
0 48
0 50
0 52
0 53
0 54
0 56
0 57
0 58
0 60
0 61
0 62
0 63
0 64
0 65
0 66
0 67
0 68
0 70
0 72
0 73
0 74
0 75
0 76
0 77
0 78
0 79
0 80
0 82
0 83
0 84
0 86
0 87
0 88
0 89
0 90
0 91
0 92
0 93
0 94
0 96
0 97
0 98
0 99
0 100
0 101
0 102
0 103
0 104
0 105
0 106
0 107
0 108
0 109
0 110
0 111
0 112
0 113
0 114
0 115
0 116
0 117
0 118
0 119
0 120
0 121
0 122
0 123
0 124
0 125
0 126
0 127
0 128
0 129
0 130
0 131
0 132
0 133
0 134
0 135
0 136
0 137
0 138
0 139
0 140
0 141
0 142
0 143
0 144
0 145
0 146
0 147
0 148
0 149
0 150
0 151
0 152
0 153
0 154
0 155
0 156
0 157
0 158
0 159
0 160
0 161
0 162
0 163
0 164
0 165
