# filename = job.h-not0mod3.n-3727058/tally.byfreq
#
# ave jacobi ops per valid v(1) with cache = 5.876
# ave jacobi ops per valid v(1) w/o cache  = 6.144
#
# fraction of 1st valid v(1) matching 1st v(1) of a verified prime = 1.000
#
# match_prime_v1   = 999995
# nomatch_prime_v1 = 0
#
# Jacobi ops ignoring cache = 5876174
# Jacobi ops with cache     = 6143530
# valid_v1_values           = 999995
#
# cache_load_count = 5876174
# cache_hit_count  = 267356
#
# out_of_range      = 0
# invalid_str_value = 0
#
# non_zero_count = 34
# zero_count     = 132
# out_of_range   = 0
#
# count sum = 999995
#
# count value
400000 3
222881 11
117123 9
105331 15
39034 20
34962 21
26494 36
25920 27
7008 51
6644 39
5244 45
3519 49
1514 55
896 59
870 57
763 65
649 44
382 69
247 66
99 81
85 95
70 99
67 71
67 84
62 67
24 74
11 105
8 101
6 72
6 125
4 111
2 87
2 90
1 109
0 0
0 1
0 2
0 4
0 5
0 6
0 7
0 8
0 10
0 12
0 13
0 14
0 16
0 17
0 18
0 19
0 22
0 23
0 24
0 25
0 26
0 28
0 29
0 30
0 31
0 32
0 33
0 34
0 35
0 37
0 38
0 40
0 41
0 42
0 43
0 46
0 47
0 48
0 50
0 52
0 53
0 54
0 56
0 58
0 60
0 61
0 62
0 63
0 64
0 68
0 70
0 73
0 75
0 76
0 77
0 78
0 79
0 80
0 82
0 83
0 85
0 86
0 88
0 89
0 91
0 92
0 93
0 94
0 96
0 97
0 98
0 100
0 102
0 103
0 104
0 106
0 107
0 108
0 110
0 112
0 113
0 114
0 115
0 116
0 117
0 118
0 119
0 120
0 121
0 122
0 123
0 124
0 126
0 127
0 128
0 129
0 130
0 131
0 132
0 133
0 134
0 135
0 136
0 137
0 138
0 139
0 140
0 141
0 142
0 143
0 144
0 145
0 146
0 147
0 148
0 149
0 150
0 151
0 152
0 153
0 154
0 155
0 156
0 157
0 158
0 159
0 160
0 161
0 162
0 163
0 164
0 165
