# filename = job.h-not0mod3.jobsets/tally.byoddfreq
#
# ave jacobi ops per valid v(1) with cache = 5.7373
# ave jacobi ops per valid v(1) w/o cache  = 6.0857
#
# fraction of 1st valid v(1) matching 1st v(1) of a verified prime = 1.0000
#
# match_prime_v1        = 6999930
# nomatch_prime_v1      = 0
#
# Jacobi ops ignoring cache = 40160814
# Jacobi ops with cache     = 42599259
# valid_v1_values           = 6999930
#
# cache_load_count = 40160814
# cache_hit_count  = 2438445
#
# out_of_range      = 0
# invalid_str_value = 0
#
# non_zero_count = 38
# zero_count     = 128
# out_of_range   = 0
#
# count sum = 6999930
#
# count value
2800000 3
1560105 11
818861 9
735612 15
270206 27
247228 21
173472 31
135167 39
88840 35
52987 51
40738 45
28669 49
20264 55
11142 59
4095 69
2624 71
1999 81
1883 85
1518 65
1104 99
1089 95
532 101
504 105
391 109
191 67
175 57
142 129
88 125
63 111
60 155
46 53
39 139
29 135
21 165
15 83
11 87
11 141
9 107
0 0
0 1
0 2
0 4
0 5
0 6
0 7
0 8
0 10
0 12
0 13
0 14
0 16
0 17
0 18
0 19
0 20
0 22
0 23
0 24
0 25
0 26
0 28
0 29
0 30
0 32
0 33
0 34
0 36
0 37
0 38
0 40
0 41
0 42
0 43
0 44
0 46
0 47
0 48
0 50
0 52
0 54
0 56
0 58
0 60
0 61
0 62
0 63
0 64
0 66
0 68
0 70
0 72
0 73
0 74
0 75
0 76
0 77
0 78
0 79
0 80
0 82
0 84
0 86
0 88
0 89
0 90
0 91
0 92
0 93
0 94
0 96
0 97
0 98
0 100
0 102
0 103
0 104
0 106
0 108
0 110
0 112
0 113
0 114
0 115
0 116
0 117
0 118
0 119
0 120
0 121
0 122
0 123
0 124
0 126
0 127
0 128
0 130
0 131
0 132
0 133
0 134
0 136
0 137
0 138
0 140
0 142
0 143
0 144
0 145
0 146
0 147
0 148
0 149
0 150
0 151
0 152
0 153
0 154
0 156
0 157
0 158
0 159
0 160
0 161
0 162
0 163
0 164
