# filename = job.h-not0mod3.n-4194304/tally.byoddfreq
#
# ave jacobi ops per valid v(1) with cache = 5.7436
# ave jacobi ops per valid v(1) w/o cache  = 6.0934
#
# fraction of 1st valid v(1) matching 1st v(1) of a verified prime = 1.0000
#
# match_prime_v1        = 999995
# nomatch_prime_v1      = 0
#
# Jacobi ops ignoring cache = 5743550
# Jacobi ops with cache     = 6093381
# valid_v1_values           = 999995
#
# cache_load_count = 5743550
# cache_hit_count  = 349831
#
# out_of_range      = 0
# invalid_str_value = 0
#
# non_zero_count = 37
# zero_count     = 129
# out_of_range   = 0
#
# count sum = 999995
#
# count value
400000 3
223284 11
116902 9
104634 15
38755 27
34785 21
25032 31
19091 39
12638 35
7842 51
5807 45
4198 49
2853 55
1647 59
603 69
369 81
363 71
325 85
208 65
163 99
154 95
78 101
56 109
55 105
33 67
23 129
22 57
20 125
14 111
13 155
11 53
5 165
4 139
3 87
2 107
2 141
1 135
0 0
0 1
0 2
0 4
0 5
0 6
0 7
0 8
0 10
0 12
0 13
0 14
0 16
0 17
0 18
0 19
0 20
0 22
0 23
0 24
0 25
0 26
0 28
0 29
0 30
0 32
0 33
0 34
0 36
0 37
0 38
0 40
0 41
0 42
0 43
0 44
0 46
0 47
0 48
0 50
0 52
0 54
0 56
0 58
0 60
0 61
0 62
0 63
0 64
0 66
0 68
0 70
0 72
0 73
0 74
0 75
0 76
0 77
0 78
0 79
0 80
0 82
0 83
0 84
0 86
0 88
0 89
0 90
0 91
0 92
0 93
0 94
0 96
0 97
0 98
0 100
0 102
0 103
0 104
0 106
0 108
0 110
0 112
0 113
0 114
0 115
0 116
0 117
0 118
0 119
0 120
0 121
0 122
0 123
0 124
0 126
0 127
0 128
0 130
0 131
0 132
0 133
0 134
0 136
0 137
0 138
0 140
0 142
0 143
0 144
0 145
0 146
0 147
0 148
0 149
0 150
0 151
0 152
0 153
0 154
0 156
0 157
0 158
0 159
0 160
0 161
0 162
0 163
0 164
