# filename = job.h-0mod3.n-4194304/tally.byfreq
#
# ave jacobi ops per valid v(1) with cache = 4.3692
# ave jacobi ops per valid v(1) w/o cache  = 4.8644
#
# fraction of 1st valid v(1) matching 1st v(1) of a verified prime = 0.9938
#
# match_prime_v1        = 993838
# nomatch_prime_v1      = 6162
#
# Jacobi ops ignoring cache = 4369163
# Jacobi ops with cache     = 4864441
# valid_v1_values           = 1000000
#
# cache_load_count = 4369163
# cache_hit_count  = 495278
#
# out_of_range      = 0
# invalid_str_value = 0
#
# non_zero_count = 37
# zero_count     = 129
# out_of_range   = 0
#
# count sum = 1000000
#
# count value
400000 3
257165 5
116920 9
104379 11
48319 15
22278 17
16844 21
16614 29
4461 35
3304 20
3073 27
2399 36
1668 39
868 41
612 45
367 51
181 56
148 59
108 32
57 44
42 57
40 49
37 65
34 69
28 71
11 77
10 55
9 81
8 95
4 66
4 99
2 105
2 116
1 67
1 74
1 104
1 109
0 0
0 1
0 2
0 4
0 6
0 7
0 8
0 10
0 12
0 13
0 14
0 16
0 18
0 19
0 22
0 23
0 24
0 25
0 26
0 28
0 30
0 31
0 33
0 34
0 37
0 38
0 40
0 42
0 43
0 46
0 47
0 48
0 50
0 52
0 53
0 54
0 58
0 60
0 61
0 62
0 63
0 64
0 68
0 70
0 72
0 73
0 75
0 76
0 78
0 79
0 80
0 82
0 83
0 84
0 85
0 86
0 87
0 88
0 89
0 90
0 91
0 92
0 93
0 94
0 96
0 97
0 98
0 100
0 101
0 102
0 103
0 106
0 107
0 108
0 110
0 111
0 112
0 113
0 114
0 115
0 117
0 118
0 119
0 120
0 121
0 122
0 123
0 124
0 125
0 126
0 127
0 128
0 129
0 130
0 131
0 132
0 133
0 134
0 135
0 136
0 137
0 138
0 139
0 140
0 141
0 142
0 143
0 144
0 145
0 146
0 147
0 148
0 149
0 150
0 151
0 152
0 153
0 154
0 155
0 156
0 157
0 158
0 159
0 160
0 161
0 162
0 163
0 164
0 165
