# filename = job.h-0mod3.n-5718259/tally.byfreq
#
# ave jacobi ops per valid v(1) with cache = 4.370
# ave jacobi ops per valid v(1) w/o cache  = 4.866
#
# fraction of 1st valid v(1) matching 1st v(1) of a verified prime = 0.994
#
# match_prime_v1   = 993887
# nomatch_prime_v1 = 6113
#
# Jacobi ops ignoring cache = 4370353
# Jacobi ops with cache     = 4865988
# valid_v1_values           = 1000000
#
# cache_load_count = 4370353
# cache_hit_count  = 495635
#
# out_of_range      = 0
# invalid_str_value = 0
#
# non_zero_count = 34
# zero_count     = 132
# out_of_range   = 0
#
# count sum = 1000000
#
# count value
400000 3
256998 5
116922 9
104489 11
48201 15
22546 17
17021 29
16430 21
4362 35
3322 20
2976 27
2343 36
1692 39
913 41
646 45
377 51
173 56
159 59
104 32
52 44
52 65
49 49
48 57
41 69
26 71
15 77
14 81
11 55
7 95
6 66
2 99
1 80
1 84
1 90
0 0
0 1
0 2
0 4
0 6
0 7
0 8
0 10
0 12
0 13
0 14
0 16
0 18
0 19
0 22
0 23
0 24
0 25
0 26
0 28
0 30
0 31
0 33
0 34
0 37
0 38
0 40
0 42
0 43
0 46
0 47
0 48
0 50
0 52
0 53
0 54
0 58
0 60
0 61
0 62
0 63
0 64
0 67
0 68
0 70
0 72
0 73
0 74
0 75
0 76
0 78
0 79
0 82
0 83
0 85
0 86
0 87
0 88
0 89
0 91
0 92
0 93
0 94
0 96
0 97
0 98
0 100
0 101
0 102
0 103
0 104
0 105
0 106
0 107
0 108
0 109
0 110
0 111
0 112
0 113
0 114
0 115
0 116
0 117
0 118
0 119
0 120
0 121
0 122
0 123
0 124
0 125
0 126
0 127
0 128
0 129
0 130
0 131
0 132
0 133
0 134
0 135
0 136
0 137
0 138
0 139
0 140
0 141
0 142
0 143
0 144
0 145
0 146
0 147
0 148
0 149
0 150
0 151
0 152
0 153
0 154
0 155
0 156
0 157
0 158
0 159
0 160
0 161
0 162
0 163
0 164
0 165
