# filename = job.h-0mod3.n-132174368/tally.byoddfreq
#
# ave jacobi ops per valid v(1) with cache = 4.348
# ave jacobi ops per valid v(1) w/o cache  = 4.849
#
# fraction of 1st valid v(1) matching 1st v(1) of a verified prime = 0.999
#
# match_prime_v1   = 998508
# nomatch_prime_v1 = 1492
#
# Jacobi ops ignoring cache = 4347548
# Jacobi ops with cache     = 4849291
# valid_v1_values           = 1000000
#
# cache_load_count = 4347548
# cache_hit_count  = 501743
#
# out_of_range      = 0
# invalid_str_value = 0
#
# non_zero_count = 35
# zero_count     = 131
# out_of_range   = 0
#
# count sum = 1000000
#
# count value
400000 3
257002 5
116909 9
104787 11
47563 15
23407 17
16816 21
16071 29
4601 35
3629 27
3323 39
2200 41
1136 45
695 31
614 51
430 55
236 59
129 49
116 71
110 69
51 65
41 81
41 85
33 95
18 99
12 57
5 77
5 101
5 105
5 109
3 125
3 155
2 129
1 53
1 165
0 0
0 1
0 2
0 4
0 6
0 7
0 8
0 10
0 12
0 13
0 14
0 16
0 18
0 19
0 20
0 22
0 23
0 24
0 25
0 26
0 28
0 30
0 32
0 33
0 34
0 36
0 37
0 38
0 40
0 42
0 43
0 44
0 46
0 47
0 48
0 50
0 52
0 54
0 56
0 58
0 60
0 61
0 62
0 63
0 64
0 66
0 67
0 68
0 70
0 72
0 73
0 74
0 75
0 76
0 78
0 79
0 80
0 82
0 83
0 84
0 86
0 87
0 88
0 89
0 90
0 91
0 92
0 93
0 94
0 96
0 97
0 98
0 100
0 102
0 103
0 104
0 106
0 107
0 108
0 110
0 111
0 112
0 113
0 114
0 115
0 116
0 117
0 118
0 119
0 120
0 121
0 122
0 123
0 124
0 126
0 127
0 128
0 130
0 131
0 132
0 133
0 134
0 135
0 136
0 137
0 138
0 139
0 140
0 141
0 142
0 143
0 144
0 145
0 146
0 147
0 148
0 149
0 150
0 151
0 152
0 153
0 154
0 156
0 157
0 158
0 159
0 160
0 161
0 162
0 163
0 164
